
Maximize
obj: 32 x97 +4 x8f +14 x8d +4 x91 +14 x1f +72 xf3 +4 x96
	+4 x93 +4 x20 +4 x94 +72 x30 +108 xa3 +108 xa4 +14 x8b +14 x1e
	+32 x98 +x1 +4 x92 +4 x95

Subject To

x1 = 9042920095

-x1c >= -1
-x1d >= -16777215
-x1e -x8b +x1c = 0
-x8d -x1f +x1d = 0
-x8f -x20 +x1e = 0
x1f -x91 -x92 = 0
x20 -x93 -x94 = 0
-x96 +x92 -x95 = 0
x97 -x94 +x1c = 1
-x96 +x98 +x1d = 16777215
-x8f +xa3 -x93 -x8b = 0
-x91 -x8d +xa4 -x95 = 0
-x97 +x30 -xa3 = 0
xf3 -xa4 -x98 = 0
-xfc >= -16777215

Bounds
x97 >= 0
x8f >= 0
x8d >= 0
x91 >= 0
x1f >= 0
xf3 >= 0
x96 >= 0
x20 >= 0
x94 >= 0
x93 >= 0
x30 >= 0
xa3 >= 0
x8b >= 0
xa4 >= 0
x1e >= 0
x98 >= 0
xfc >= 0
x92 >= 0
x95 >= 0
x1d >= 0
x1c >= 0

Generals
x1
 x97 x8f x8d x91 x1f xf3 x96 x20 x94 x93
 x30 xa3 x8b xa4 x1e x98 xfc x92 x95 x1d
 x1c



End
